HUN,8,6,484
4,27,5,28,1,21,3,25,0,25,2,21
1,21,5,21,3,28,4,28,0,28,2,23
5,26,1,24,4,23,2,23,0,21,3,22
2,27,3,28,4,29,0,28,1,28,5,23
0,21,1,22,4,21,2,29,5,23,3,23
1,21,0,28,4,30,5,23,2,28,3,27
5,27,0,23,3,25,2,30,1,30,4,27
0,23,5,28,1,22,2,29,4,26,3,21
